solution status: time limit reached
objective value:                               -18000
C787226                                             1 	(obj:-1000)
delta_0_0_0                                         1 	(obj:0)
delta_0_1_2                                         1 	(obj:0)
delta_0_2_1                                         1 	(obj:0)
delta_1_0_0                                         1 	(obj:0)
delta_1_1_2                                         1 	(obj:0)
delta_1_2_1                                         1 	(obj:0)
delta_2_0_1                                         1 	(obj:0)
delta_2_1_0                                         1 	(obj:0)
delta_2_2_2                                         1 	(obj:0)
delta_3_0_1                                         1 	(obj:0)
delta_3_1_0                                         1 	(obj:0)
delta_3_2_2                                         1 	(obj:0)
delta_4_0_1                                         1 	(obj:0)
delta_4_1_0                                         1 	(obj:0)
delta_4_2_2                                         1 	(obj:0)
delta_5_0_1                                         1 	(obj:0)
delta_5_1_0                                         1 	(obj:0)
delta_5_2_2                                         1 	(obj:0)
delta_6_0_1                                         1 	(obj:0)
delta_6_1_0                                         1 	(obj:0)
delta_6_2_2                                         1 	(obj:0)
delta_7_0_1                                         1 	(obj:0)
delta_7_1_0                                         1 	(obj:0)
delta_7_2_2                                         1 	(obj:0)
delta_8_0_1                                         1 	(obj:0)
delta_8_1_0                                         1 	(obj:0)
delta_8_2_2                                         1 	(obj:0)
delta_9_0_2                                         1 	(obj:0)
delta_9_1_1                                         1 	(obj:0)
delta_9_2_0                                         1 	(obj:0)
delta_10_0_2                                        1 	(obj:0)
delta_10_1_1                                        1 	(obj:0)
delta_10_2_0                                        1 	(obj:0)
delta_11_0_2                                        1 	(obj:0)
delta_11_1_1                                        1 	(obj:0)
delta_11_2_0                                        1 	(obj:0)
delta_13_0_1                                        1 	(obj:0)
delta_13_1_0                                        1 	(obj:0)
delta_13_2_2                                        1 	(obj:0)
delta_14_0_2                                        1 	(obj:0)
delta_14_1_1                                        1 	(obj:0)
delta_14_2_0                                        1 	(obj:0)
delta_15_0_2                                        1 	(obj:0)
delta_15_1_1                                        1 	(obj:0)
delta_15_2_0                                        1 	(obj:0)
delta_16_0_1                                        1 	(obj:0)
delta_16_1_0                                        1 	(obj:0)
delta_16_2_2                                        1 	(obj:0)
delta_17_0_2                                        1 	(obj:0)
delta_17_1_1                                        1 	(obj:0)
delta_17_2_0                                        1 	(obj:0)
delta_18_0_2                                        1 	(obj:0)
delta_18_1_1                                        1 	(obj:0)
delta_18_2_0                                        1 	(obj:0)
lambda_0_2_1                                        1 	(obj:0)
lambda_0_4_1                                        1 	(obj:0)
lambda_0_5_1                                        1 	(obj:0)
lambda_0_6_1                                        1 	(obj:0)
lambda_0_7_1                                        1 	(obj:0)
lambda_0_8_1                                        1 	(obj:0)
lambda_0_9_1                                        1 	(obj:0)
lambda_0_10_1                                       1 	(obj:0)
lambda_0_13_1                                       1 	(obj:0)
lambda_0_17_1                                       1 	(obj:0)
lambda_1_0_1                                        1 	(obj:0)
lambda_1_2_1                                        1 	(obj:0)
lambda_1_4_1                                        1 	(obj:0)
lambda_1_5_1                                        1 	(obj:0)
lambda_1_6_1                                        1 	(obj:0)
lambda_1_7_1                                        1 	(obj:0)
lambda_1_8_1                                        1 	(obj:0)
lambda_1_9_1                                        1 	(obj:0)
lambda_1_10_1                                       1 	(obj:0)
lambda_1_13_1                                       1 	(obj:0)
lambda_1_17_1                                       1 	(obj:0)
lambda_1_18_1                                       1 	(obj:0)
lambda_2_4_1                                        1 	(obj:0)
lambda_2_5_1                                        1 	(obj:0)
lambda_2_6_1                                        1 	(obj:0)
lambda_2_7_1                                        1 	(obj:0)
lambda_2_8_1                                        1 	(obj:0)
lambda_2_9_1                                        1 	(obj:0)
lambda_2_10_1                                       1 	(obj:0)
lambda_2_13_1                                       1 	(obj:0)
lambda_2_17_1                                       1 	(obj:0)
lambda_3_0_1                                        1 	(obj:0)
lambda_3_1_1                                        1 	(obj:0)
lambda_3_2_1                                        1 	(obj:0)
lambda_3_4_1                                        1 	(obj:0)
lambda_3_5_1                                        1 	(obj:0)
lambda_3_6_1                                        1 	(obj:0)
lambda_3_7_1                                        1 	(obj:0)
lambda_3_8_1                                        1 	(obj:0)
lambda_3_9_1                                        1 	(obj:0)
lambda_3_10_1                                       1 	(obj:0)
lambda_3_11_1                                       1 	(obj:0)
lambda_3_13_1                                       1 	(obj:0)
lambda_3_14_1                                       1 	(obj:0)
lambda_3_15_1                                       1 	(obj:0)
lambda_3_16_1                                       1 	(obj:0)
lambda_3_17_1                                       1 	(obj:0)
lambda_3_18_1                                       1 	(obj:0)
lambda_4_5_1                                        1 	(obj:0)
lambda_4_6_1                                        1 	(obj:0)
lambda_4_7_1                                        1 	(obj:0)
lambda_4_8_1                                        1 	(obj:0)
lambda_4_9_1                                        1 	(obj:0)
lambda_4_10_1                                       1 	(obj:0)
lambda_4_17_1                                       1 	(obj:0)
lambda_6_5_1                                        1 	(obj:0)
lambda_7_5_1                                        1 	(obj:0)
lambda_7_6_1                                        1 	(obj:0)
lambda_7_8_1                                        1 	(obj:0)
lambda_7_9_1                                        1 	(obj:0)
lambda_7_10_1                                       1 	(obj:0)
lambda_8_5_1                                        1 	(obj:0)
lambda_8_6_1                                        1 	(obj:0)
lambda_9_5_1                                        1 	(obj:0)
lambda_9_6_1                                        1 	(obj:0)
lambda_9_8_1                                        1 	(obj:0)
lambda_10_5_1                                       1 	(obj:0)
lambda_10_6_1                                       1 	(obj:0)
lambda_10_8_1                                       1 	(obj:0)
lambda_10_9_1                                       1 	(obj:0)
lambda_11_0_1                                       1 	(obj:0)
lambda_11_1_1                                       1 	(obj:0)
lambda_11_2_1                                       1 	(obj:0)
lambda_11_4_1                                       1 	(obj:0)
lambda_11_5_1                                       1 	(obj:0)
lambda_11_6_1                                       1 	(obj:0)
lambda_11_7_1                                       1 	(obj:0)
lambda_11_8_1                                       1 	(obj:0)
lambda_11_9_1                                       1 	(obj:0)
lambda_11_10_1                                      1 	(obj:0)
lambda_11_13_1                                      1 	(obj:0)
lambda_11_14_1                                      1 	(obj:0)
lambda_11_15_1                                      1 	(obj:0)
lambda_11_16_1                                      1 	(obj:0)
lambda_11_17_1                                      1 	(obj:0)
lambda_11_18_1                                      1 	(obj:0)
lambda_13_4_1                                       1 	(obj:0)
lambda_13_5_1                                       1 	(obj:0)
lambda_13_6_1                                       1 	(obj:0)
lambda_13_7_1                                       1 	(obj:0)
lambda_13_8_1                                       1 	(obj:0)
lambda_13_9_1                                       1 	(obj:0)
lambda_13_10_1                                      1 	(obj:0)
lambda_13_17_1                                      1 	(obj:0)
lambda_14_0_1                                       1 	(obj:0)
lambda_14_1_1                                       1 	(obj:0)
lambda_14_2_1                                       1 	(obj:0)
lambda_14_4_1                                       1 	(obj:0)
lambda_14_5_1                                       1 	(obj:0)
lambda_14_6_1                                       1 	(obj:0)
lambda_14_7_1                                       1 	(obj:0)
lambda_14_8_1                                       1 	(obj:0)
lambda_14_9_1                                       1 	(obj:0)
lambda_14_10_1                                      1 	(obj:0)
lambda_14_13_1                                      1 	(obj:0)
lambda_14_16_1                                      1 	(obj:0)
lambda_14_17_1                                      1 	(obj:0)
lambda_14_18_1                                      1 	(obj:0)
lambda_15_0_1                                       1 	(obj:0)
lambda_15_1_1                                       1 	(obj:0)
lambda_15_2_1                                       1 	(obj:0)
lambda_15_4_1                                       1 	(obj:0)
lambda_15_5_1                                       1 	(obj:0)
lambda_15_6_1                                       1 	(obj:0)
lambda_15_7_1                                       1 	(obj:0)
lambda_15_8_1                                       1 	(obj:0)
lambda_15_9_1                                       1 	(obj:0)
lambda_15_10_1                                      1 	(obj:0)
lambda_15_13_1                                      1 	(obj:0)
lambda_15_14_1                                      1 	(obj:0)
lambda_15_16_1                                      1 	(obj:0)
lambda_15_17_1                                      1 	(obj:0)
lambda_15_18_1                                      1 	(obj:0)
lambda_16_0_1                                       1 	(obj:0)
lambda_16_1_1                                       1 	(obj:0)
lambda_16_2_1                                       1 	(obj:0)
lambda_16_4_1                                       1 	(obj:0)
lambda_16_5_1                                       1 	(obj:0)
lambda_16_6_1                                       1 	(obj:0)
lambda_16_7_1                                       1 	(obj:0)
lambda_16_8_1                                       1 	(obj:0)
lambda_16_9_1                                       1 	(obj:0)
lambda_16_10_1                                      1 	(obj:0)
lambda_16_13_1                                      1 	(obj:0)
lambda_16_17_1                                      1 	(obj:0)
lambda_16_18_1                                      1 	(obj:0)
lambda_17_5_1                                       1 	(obj:0)
lambda_17_6_1                                       1 	(obj:0)
lambda_17_7_1                                       1 	(obj:0)
lambda_17_8_1                                       1 	(obj:0)
lambda_17_9_1                                       1 	(obj:0)
lambda_17_10_1                                      1 	(obj:0)
lambda_18_0_1                                       1 	(obj:0)
lambda_18_2_1                                       1 	(obj:0)
lambda_18_4_1                                       1 	(obj:0)
lambda_18_5_1                                       1 	(obj:0)
lambda_18_6_1                                       1 	(obj:0)
lambda_18_7_1                                       1 	(obj:0)
lambda_18_8_1                                       1 	(obj:0)
lambda_18_9_1                                       1 	(obj:0)
lambda_18_10_1                                      1 	(obj:0)
lambda_18_13_1                                      1 	(obj:0)
lambda_18_17_1                                      1 	(obj:0)
C787056                                             1 	(obj:-1000)
C787058                                             1 	(obj:-1000)
C787061                                             1 	(obj:-1000)
C787065                                             1 	(obj:-1000)
C787070                                             1 	(obj:-1000)
C787076                                             1 	(obj:-1000)
C787083                                             1 	(obj:-1000)
C787091                                             1 	(obj:-1000)
C787100                                             1 	(obj:-1000)
C787110                                             1 	(obj:-1000)
C787121                                             1 	(obj:-1000)
C787133                                             1 	(obj:-1000)
C787160                                             1 	(obj:-1000)
C787175                                             1 	(obj:-1000)
C787191                                             1 	(obj:-1000)
C787208                                             1 	(obj:-1000)
C787245                                             1 	(obj:-1000)
pse_X_0_x                                           6 	(obj:0)
pse_X_0_y                                         105 	(obj:0)
pse_X_0_z                                           6 	(obj:0)
pse_X_1_x                                           6 	(obj:0)
pse_X_1_y                                         125 	(obj:0)
pse_X_1_z                                           6 	(obj:0)
pse_X_2_x                                           6 	(obj:0)
pse_X_2_y                                          95 	(obj:0)
pse_X_2_z                                           6 	(obj:0)
C9                                                  6 	(obj:0)
C10                                               175 	(obj:0)
C11                                                 6 	(obj:0)
C12                                                 6 	(obj:0)
C13                                                75 	(obj:0)
C14                                                 6 	(obj:0)
C15                                                 6 	(obj:0)
C16                                                 5 	(obj:0)
C17                                                 6 	(obj:0)
C18                                                 6 	(obj:0)
C19                                                15 	(obj:0)
C20                                                 6 	(obj:0)
C21                                                 6 	(obj:0)
C22                                                55 	(obj:0)
C23                                                 6 	(obj:0)
C24                                                 6 	(obj:0)
C25                                                25 	(obj:0)
C26                                                 6 	(obj:0)
C27                                                 5 	(obj:0)
C28                                                35 	(obj:0)
C29                                                 5 	(obj:0)
C30                                                 5 	(obj:0)
C31                                                45 	(obj:0)
C32                                                 5 	(obj:0)
C33                                                 5 	(obj:0)
C34                                               165 	(obj:0)
C35                                                 5 	(obj:0)
C39                                                 6 	(obj:0)
C40                                                85 	(obj:0)
C41                                                 6 	(obj:0)
C42                                                 5 	(obj:0)
C43                                               145 	(obj:0)
C44                                                 5 	(obj:0)
C45                                                 5 	(obj:0)
C46                                               155 	(obj:0)
C47                                                 5 	(obj:0)
C48                                                 6 	(obj:0)
C49                                               135 	(obj:0)
C50                                                 5 	(obj:0)
C51                                                 5 	(obj:0)
C52                                                65 	(obj:0)
C53                                                 6 	(obj:0)
C54                                                 5 	(obj:0)
C55                                               115 	(obj:0)
C56                                                 5 	(obj:0)
